
  32    4
  10   10   10   10

   0   0   0   0   0   6 2 27 28 29 30 31 
   9   1   1   1   0   3 26 25 3 
   6   4   2   0   1   3 24 23 4 
  10   0   8   1   5   2 22 5 
   8   2   4   0   6   1 6 
   8   0   8   3   1   2 21 7 
   6   4   0   6   4   2 20 8 
   4   2   0   5   2   1 9 
   9   4   0   3   3   2 19 10 
   3   0   3   7   4   1 11 
   4   3   4   4   0   2 18 12 
   3   2  10   0   4   2 17 13 
   2   4   2   3   0   1 14 
   1   0   3   6   2   1 15 
   5   0   4   6   5   1 16 
   5   3   4   0   5   1 32
   4   6   5   7   0   1 32
   9   0   5   4   2   1 32
   8   4   4   3   0   1 32
   8   9   0   6   3   1 32
   9   0   3   2   6   1 32
   3   5   3   3   0   1 32
   5   7   4   2   0   1 32
   4   3   7   0   5   1 32
   5   1   2   0   2   1 32
   3   6   5   0   5   1 32
   1   4   1   0   7   1 32
   1   0   2   2   4   1 32
   2   5   3   0   8   1 32
   5   2   3   4   0   1 32
   1   7   0   6   4   1 32
   0   0   0   0   0   0 
